(set-info :status unknown)
(declare-fun C3 () (_ BitVec 11))
(declare-fun C2 () (_ BitVec 11))
(declare-fun C () (_ BitVec 8))
(declare-fun %Op () (_ BitVec 8))
(assert
 (let ((?x1762 (bvsub C2 C3)))
 (let ((?x4733 (ite (and (distinct ((_ extract 2 2) ?x1762) (_ bv0 1)) true) (_ bv2 11) (ite (and (distinct ((_ extract 1 1) ?x1762) (_ bv0 1)) true) (_ bv1 11) (_ bv0 11)))))
 (let ((?x3608 (ite (and (distinct ((_ extract 5 5) ?x1762) (_ bv0 1)) true) (_ bv5 11) (ite (and (distinct ((_ extract 4 4) ?x1762) (_ bv0 1)) true) (_ bv4 11) (_ bv3 11)))))
 (let ((?x3681 (ite (and (distinct ((_ extract 8 8) ?x1762) (_ bv0 1)) true) (_ bv8 11) (ite (and (distinct ((_ extract 7 7) ?x1762) (_ bv0 1)) true) (_ bv7 11) (_ bv6 11)))))
 (let ((?x7573 (ite (and (distinct ((_ extract 10 9) ?x1762) (_ bv0 2)) true) (ite (and (distinct ((_ extract 10 10) ?x1762) (_ bv0 1)) true) (_ bv10 11) (_ bv9 11)) ?x3681)))
 (let ((?x2841 (ite (and (distinct ((_ extract 10 6) ?x1762) (_ bv0 5)) true) ?x7573 (ite (and (distinct ((_ extract 5 3) ?x1762) (_ bv0 3)) true) ?x3608 ?x4733))))
 (let ((?x1569 (ite (and (distinct ((_ extract 3 2) C) (_ bv0 2)) true) (ite (and (distinct ((_ extract 3 3) C) (_ bv0 1)) true) (_ bv3 11) (_ bv2 11)) (ite (and (distinct ((_ extract 1 1) C) (_ bv0 1)) true) (_ bv1 11) (_ bv0 11)))))
 (let ((?x3370 (ite (and (distinct ((_ extract 7 6) C) (_ bv0 2)) true) (ite (and (distinct ((_ extract 7 7) C) (_ bv0 1)) true) (_ bv7 11) (_ bv6 11)) (ite (and (distinct ((_ extract 5 5) C) (_ bv0 1)) true) (_ bv5 11) (_ bv4 11)))))
 (let ((?x1750 (bvsub (ite (and (distinct ((_ extract 7 4) C) (_ bv0 4)) true) ?x3370 ?x1569) ?x2841)))
 (let ((?x5353 (ite (bvsgt (_ bv0 11) ?x1750) (_ bv0 11) ?x1750)))
 (let ((?x5932 (bvsub ?x2841 (ite (and (distinct ((_ extract 7 4) C) (_ bv0 4)) true) ?x3370 ?x1569))))
 (let ((?x4273 (ite (bvsgt (_ bv0 11) ?x5932) (_ bv0 11) ?x5932)))
 (let ((?x6836 (bvxor (bvlshr (bvshl ((_ zero_extend 3) (bvand %Op C)) ?x4273) ?x5353) ?x1762)))
 (let (($x5447 (and (distinct (ite (= (ite (= (bvand %Op C) (_ bv0 8)) (_ bv1 1) (_ bv0 1)) (_ bv1 1)) C2 C3) (bvadd ?x6836 C3)) true)))
 (let ((?x4026 (ite (and (distinct ((_ extract 3 2) C) (_ bv0 2)) true) (ite (and (distinct ((_ extract 3 3) C) (_ bv0 1)) true) (_ bv3 32) (_ bv2 32)) (ite (and (distinct ((_ extract 1 1) C) (_ bv0 1)) true) (_ bv1 32) (_ bv0 32)))))
 (let ((?x2471 (ite (and (distinct ((_ extract 7 6) C) (_ bv0 2)) true) (ite (and (distinct ((_ extract 7 7) C) (_ bv0 1)) true) (_ bv7 32) (_ bv6 32)) (ite (and (distinct ((_ extract 5 5) C) (_ bv0 1)) true) (_ bv5 32) (_ bv4 32)))))
 (and (and (and (distinct C (_ bv0 8)) true) (= (bvand C (bvsub C (_ bv1 8))) (_ bv0 8))) (and (and (distinct ?x1762 (_ bv0 11)) true) (= (bvand ?x1762 (bvsub ?x1762 (_ bv1 11))) (_ bv0 11))) (bvslt (ite (and (distinct ((_ extract 7 4) C) (_ bv0 4)) true) ?x2471 ?x4026) (_ bv11 32)) $x5447))))))))))))))))))
(check-sat)
